25977 24688 24309 23983 23449 23192 22883 22320 22203 21987 21279 21078 20767 20607 20128 19914 19508 19420 19189 18995 18812 18425 18317 18172 17906 17738 17550 17362 16981 16900 16827 16677 16478 16283 16108 15947 15788 15627 15521 15414 15308 15253 15089 14969 14841 14668 14607 14515 14458 14352 14323 14218 14137 14048 13923 13898 13841 13783 13727 13659 13568 13460 13302 13257 13194 13129 13038 12938 12912 12830 12802 12718 12687 12625 12566 12534 12509 12470 12445 12408 12370 12326 12299 12214 12197 12138 12099 12033 11988 11891 11842 11853 11837 11815 11800 11752 11736 11717 11708 11662 11648 11627 11608 11577 11553 11526 11497 11456 11408 11370 11330 11309 11263 11225 11215 11200 11202 11176 11153 11123 11110 11095 11084 11046 11004 11009 10971 10944 10904 10917 10885 10837 10812 10766 10753 10746 10739 10709 10698 10680 10655 10630 10606 10606 10589 10588 10569 10563 10554 10543 10507 10489 10477 10445 10435 10415 10379 10372 10360 10350 10320 10318 10277 10205 10201 10169 10156 10149 10149 10134 10131 10105 10090 10087 10074 10074 10058 10039 10008 10005 9985 9963 9954 9915 9913 9887 9907 9894 9880 9872 9861 9861 9861 9824 9789 9826 9826 9799 9786 9785 9743 9743 9742 9743 9781 9753 9737 9714 9761 9723 9718 9714 9700 9702 9696 9676 9685 9624 9624 9625 9606 9601 9590 9646 9607 9622 9622 9645 9630 9637 9631 9618 9603 9613 9611 9558 9572 9550 9561 9535 9547 9535 9495 9468 9467 9436 9419 9419 9416 9383 9376 9399 9398 9398 9383 9401 9414 9408 9428 9404 9385 9369 9365 9391 9373 9366 9351 9353 9353 9328 9311 9308 9313 9270 9341 9375 9367 9337 9337 9296 9286 9228 9228 9295 9303 9286 9265 9314 9289 9251 9242 9213 9184 9164 9231 9210 9180 9149 9207 9222 9216 9221 9198 9171 9150 9135 9148 9140 9108 9089 9077 9058 9043 9043 9040 9091 9062 9044 9024 9006 9009 8915 8910 8898 8925 8925 8900 8869 8872 8911 8898 8896 8974 8974 8975 8934 8970 8941 8928 8878 8905 8891 8854 8854 8838 8826 8810 8884 8871 8864 8847 8841 8847 8821 8820 8802 8788 8784 8758 8744 8736 8697 8725 8717 8698 8675 8650 8674 8660 8642 8627 8492 8492 8483 8448 8480 8474 8431 8417 8416 8393 8374 8441 8427 8422 8408 8400 8386 8381 8376 8364 8336 8328 8306 8284 8254 8247 8223 8208 8137 8124 8124 8112 8094 8094 8085 8069 8067 8013 8013 7995 7988 7976 7913 7913 7913 7892 7873 7862 7847 7811 7811 7800 7726 7726 7715 7710 7707 7679 7655 7652 7647 7642 7636 7627 7615 7578 7568 7544 7530 7525 7518 7518 7505 7496 7485 7474 7464 7418 7411 7392 7384 7351 7351 7351 7349 7348 7343 7342 7339 7327 7321 7318 7316 7304 7295 7281 7281 7268 7268 7248 7243 7240 7211 7210 7197 7188 7178 7178 7166 7166 7166 7156 7155 7145 7137 7134 7127 7126 7116 7109 7101 7076 7076 7069 7064 7037 7037 7037 7021 7021 7015 7011 7008 6998 6991 6988 6985 6982 6980 6975 6975 6975 6967 6967 6967 6958 6958 6945 6942 6932 6920 6918 6917 6914 6903 6877 6876 6876 6850 6850 6850 6848 6848 6838 6836 6834 6829 6827 6825 6823 6822 6822 6821 6821 6810 6810 6804 6804 6804 6796 6796 6796 6796 6791 6791 6787 6782 6781 6776 6766 6760 6741 6741 6734 6699 6699 6697 6696 6692 6692 6687 6680 6680 6670 6661 6650 6628 6618 6611 6572 6572 6572 6569 6569 6569 6567 6565 6546 6546 6544 6538 6538 6538 6501 6501 6500 6497 6496 6488 6486 6485 6484 6479 6479 6478 6473 6471 6471 6471 6470 6470 6466 6466 6465 6459 6458 6454 6445 6445 6445 6431 6431 6429 6429 6424 6422 6414 6412 6408 6397 6397 6395 6388 6382 6381 6379 6379 6379 6376 6376 6375 6375 6375 6375 6375 6367 6367 6367 6367 6367 6367 6365 6365 6353 6353 6353 6351 6349 6344 6336 6336 6333 6328 6327 6319 6318 6318 6316 6314 6300 6300 6284 6233 6233 6231 6230 6190 6190 6190 6189 6189 6189 6188 6187 6185 6177 6175 6175 6173 6172 6170 6168 6168 6165 6165 6165 6161 6161 6161 6161 6161 6156 6156 6154 6153 6125 6125 6107 6107 6106 6106 6091 6091 6091 6085 6085 6080 6077 6072 6072 6071 6070 6070 6070 6055 6055 6055 6055 6055 6050 6050 6049 6041 6040 6039 6019 6019 6019 6011 6011 6009 6009 6009 5998 5998 5997 5997 5996 5996 5992 5992 5992 5989 5989 5989 5989 5989 5987 5987 5987 5987 5987 5987 5987 5985 5980 5980 5980 5980 5979 5979 5979 5979 5979 5979 5977 5974 5972 5972 5972 5972 5963 5963 5963 5963 5962 5961 5960 5958 5954 5954 5949 5949 5949 5947 5943 5943 5941 5939 5939 5939 5939 5936 5936 5936 5935 5934 5934 5907 5907 5901 5901 5874 5874 5872 5872 5872 5870 5870 5870 5870 5870 5870 5855 5855 5855 5855 5855 5848 5848 5846 5846 5838 5838 5829 5829 5823 5823 5823 5820 5818 5809 5809 5795 5795 5795 5781 5781 5771 5765 5765 5764 5761 5761 5761 5761 5761 5761 5761 5761 5761 5761 5759 5748 5748 5748 5747 5747 5747 5744 5744 5744 5744 5744 5744 5744 5742 5742 5740 5740 5739 5739 5739 5738 5738 5738 5738 5733 5733 5733 5733 5733 5733 5733 5732 5732 5725 5725 5722 5722 5716 5716 5714 5703 5701 5700 5687 5687 5686 5685 5684 5683 5681 5679 5679 5679 5679 5679 5679 5664 5663 5651 5650 5650 5650 5648 5648 5646 5646 5646 5644 5644 5627 5626 5626 5622 5621 5621 5620 5620 5609 5608 5608 5601 5600 5597 5584 5584 5575 5575 5575 5575 5572 5572 5572 5572 5572 5552 5552 5552 5548 5548 5547 5547 5547 5547 5547 5547 5547 5545 5536 5534 5534 5510 5510 5510 5510 5510 5509 5509 5506 5506 5506 5506 5506 5506 5506 5506 5504 5504 5495 5471 5461 5457 5457 5457 5457 5457 5455 5455 5455 5455 5455 5455 5455 5455 5450 5450 5450 5450 5450 5446 5446 5442 5440 5436 5435 5435 5435 5435 5435 5433 5433 5432 5430 5430 5430 5430 5428 5428 5428 5427 5425 5425 5425 5425 5425 5425 5425 5423 5423 5413 5413 5413 5412 5412 5412 5412 5412 5412 5412 5403 5403 5403 5403 5403 5397 5397 5397 5397 5397 5397 5397 5397 5367 5367 5367 5366 5366 5366 5366 5366 5366 5366 5366 5366 5366 5366 5349 5349 5349 5349 5331 5331 5331 5331 5331 5329 5328 5328 5325 5325 5325 5322 5322 5322 5319 5319 5319 5319 5319 5319 5319 5311 5311 5311 5310 5305 5304 5304 5304 5304 5293 5293 5293 5292 5292 5292 5292 5292 5292 5292 5292 5282 5282 5281 5281 5281 5281 5281 5281 5279 5279 5279 5279 5279 5279 5279 5279 5279 5279 5279 5279 5279 5279 5279 5279 5279 5279 5279 5279 5279 5279 5279 5279 5279 5279 5279 5279 5279 5278 5278 5278 5278 5278 5278 5278 5278 5278 5276 5276 5271 5271 5271 5271 5271 5271 5271 5271 5271 5271 5271 5271 5271 5271 5271 5271 5271 5271 5271 5271 5271 5271 5271 5271 5271 5271 5271 5271 5271 5271 5271 5271 5271 5271 5271 5271 5271 5271 5271 5271 5271 5264 5264 5264 5264 5264 5264 5264 5264 5264 5264 5264 5264 5264 5264 5264 5264 5264 5264 5264 5264 5264 5253 5253 5253 5253 5253 5253 5253 5253 5250 5250 5250 5250 5250 5250 5250 5250 5250 5250 5250 5250 5250 5250 5250 5250 5250 5250 5250 5250 5250 5250 5250 5250 5250 5250 5250 5245 5245 5245 5245 5242 5242 5227 5227 5226 5226 5226 5226 5226 5220 5220 5220 5220 5220 5220 5220 5220 5220 5220 5216 5216 5216 5216 5216 5216 5216 5216 5216 5216 5216 5205 5205 5205 5205 5205 5205 5205 5205 5205 5205 5205 5205 5205 5205 5205 5205 5205 5205 5205 5205 5205 5205 5205 5205 5205 5205 5205 5205 5202 5202 5202 5200 5200 5200 5198 5196 5196 5194 5194 5194 5194 5194 5194 5194 5194 5194 5194 5194 5194 5193 5193 5182 5182 5182 5182 5181 5174 5174 5174 5158 5158 5153 5153 5153 5148 5148 5148 5148 5148 5148 5148 5148 5138 5138 5138 5137 5137 5137 5137 5137 5137 5137 5137 5137 5137 5137 5137 5137 5137 5137 5137 5137 5137 5137 5137 5137 5137 5137 5137 5137 5137 5137 5137 5137 5137 5137 5137 5137 5137 5137 5137 5137 5137 5137 5137 5137 5137 5137 5137 5137 5137 5137 5137 5137 5137 5137 5137 5137 5137 5137 5137 5137 5137 5137 5137 5137 5137 5137 5137 5137 5137 5137 5137 5137 5137 5137 5137 5137 5137 5137 5137 5137 5137 5137 5134 5134 5134 5134 5134 5134 5134 5134 5134 5134 5134 5134 5134 5134 5134 5134 5134 5134 5134 5134 5134 5134 5134 5134 5134 5134 5134 5134 5134 5134 5134 5134 5134 5134 5134 5134 5134 5134 5134 5134 5134 5134 5134 5134 5134 5134 5134 5134 5134 5134 5134 5134 5134 5134 5134 5134 5134 5134 5134 5134 5134 5134 5134 5134 5134 5134 5134 5134 5134 5132 5132 5132 5132 5132 5132 5132 5132 5132 5132 5132 5132 5132 5132 5132 5132 5132 5132 5132 5132 5132 5132 5132 5132 5132 5132 5132 5132 5132 5132 5132 5132 5132 5132 5132 5132 5132 5132 5132 5132 5132 5132 5132 5132 5132 5132 5132 5132 5132 5132 5132 5132 5132 5132 5132 5132 5132 5132 5132 5132 5132 5132 5132 5132 5132 5132 5132 5132 5132 5132 5132 5132 5132 5132 5132 5132 5132 5132 5132 5132 5132 5132 5132 5132 5132 5132 5132 5132 5132 5132 5132 5132 5132 5132 5132 5132 5132 5132 5132 5132 5132 5132 5132 5132 5132 5132 5132 5132 5132 5132 5128 5128 5127 5127 5126 5126 5126 5126 5126 5126 5126 5126 5126 5126 5126 5126 5126 5126 5126 5126 5126 5126 5126 5126 5126 5126 5126 5126 5126 5126 5126 5126 5126 5126 5126 5126 5126 5126 5126 5126 5126 5126 5126 5126 5126 5126 5126 5126 5126 5126 5126 5126 5126 5126 5126 5126 5126 5126 5123 5123 5123 5123 5123 5123 5123 5123 5123 5123 5123 5123 5123 5123 5123 5123 5123 5123 5123 5123 5123 5123 5123 5123 5123 5123 5123 5123 5123 5121 5121 5121 5121 5121 5121 5121 5121 5121 5121 5121 5121 5121 5121 5121 5121 5121 5121 5121 5121 5121 5121 5121 5121 5121 5121 5121 5121 5121 5121 5121 5121 5121 5121 5121 5121 5121 5121 5121 5121 5121 5121 5121 5121 5121 5121 5121 5121 5121 5121 5121 5121 5121 5121 5121 5121 5121 5121 5121 5121 5121 5121 5121 5121 5121 5121 5121 5121 5120 5120 5120 5120 5120 5120 5120 5120 5120 5120 5120 5120 5120 5120 5120 5120 5120 5120 5120 5120 5120 5120 5120 5120 5120 5120 5120 5120 5120 5120 5120 5120 5120 5120 5120 5120 5120 5120 5120 5120 5120 5120 5120 5120 5120 5120 5120 5120 5120 5120 5120 5120 5120 5120 5120 5120 5120 5120 5120 5120 5120 5120 5120 5120 5120 5120 5120 5120 5120 5120 5120 5120 5120 5120 5120 5120 5120 5120 5120 5120 5120 5120 5120 5120 5120 5120 5120 5120 5120 5120 5120 5120 5120 5120 5120 5120 5120 5120 5120 5120 5120 5120 5120 5120 5120 5120 5120 5120 5120 5120 5120 5120 5120 5120 5120 5120 5120 5120 5120 5120 5120 5120 5120 5120 5120 5120 5120 5120 5120 5120 5120 5120 5120 5120 5120 5120 5120 5120 5120 5120 5120 5120 5120 5120 5120 5120 5120 5120 5120 5120 5120 5120 5120 5120 5120 5120 5120 5120 5120 5120 5120 5120 5120 5120 5120 5120 5120 5120 5120 5120 5120 5120 5120 5120 5120 5120 5120 5120 5120 5120 5120 5120 5120 5120 5120 5120 5120 5120 5120 5120 5120 5120 5120 5120 5120 5120 5120 5120 5120 5120 5120 5120 5120 5120 5120 5120 5120 5120 5120 5120 5120 5120 5120 5120 5120 5120 5120 5120 5120 5120 5120 5120 5120 5120 5120 5120 5120 5120 5120 5120 5120 5120 5120 5120 5120 5120 5120 5120 5120 5120 5120 5120 5120 5120 5120 5120 5120 5120 5120 5120 5120 5120 5120 5120 5120 5120 5120 5120 5120 5120 5120 5120 5120 5120 5120 5120 5120 5120 5120 5120 5120 5120 5120 5120 5120 5120 5120 5120 5120 5120 5120 5120 5120 5120 5120 5120 5120 5120 5120 5120 5120 5120 5120 5120 5120 5120 5120 5120 5120 5120 5120 5120 5120 5120 5120 5120 5120 5120 5120 5120 5120 5120 5120 5120 5120 5120 5120 5120 5120 5120 5120 5120 5120 5120 5120 5120 5120 5120 5120 5120 5120 5120 5120 5120 5120 5120 5120 5120 5120 5120 5120 5120 5120 5120 5120 5120 5120 5120 5120 5120 5120 5120 5120 5120 5120 5120 5120 5120 5120 5120 5120 5120 5120 5120 5120 5120 5120 5120 5120 5120 5120 5120 5120 5120 5120 5120 5120 5120 5120 5120 5120 5120 5120 5120 5120 5120 5120 5120 5120 5120 5120 5120 5120 5120 5120 5120 5120 5120 5120 5120 5120 5120 5120 5120 5120 5120 5120 5120 5120 5120 5120 5120 5120 5120 5120 5120 5120 5120 5120 5120 5120 5120 5120 5120 5120 5120 5120 5120 5120 5120 5120 5120 5120 5120 5120 5120 5120 5120 5120 5120 5120 5120 5120 5120 5120 5120 5120 5120 5120 5120 5120 5120 5120 5120 5120 5120 5120 5120 5120 5120 5120 5120 5120 5120 5120 5120 5120 5120 5120 5120 5120 5120 5120 5120 5120 5120 5120 5120 5120 5120 5120 5120 5120 5120 5120 5120 5120 5120 5120 5120 5120 5120 5120 5120 5120 5120 5120 5120 5120 5120 5120 
17027 15873 15375 15097 14672 14242 14011 13333 13143 12935 12299 12123 11910 11634 11129 11006 10410 10353 10172 9983 9749 9371 9295 9146 8909 8690 8452 8206 7876 7829 7701 7516 7367 7123 6966 6815 6630 6474 6378 6292 6150 6093 5931 5872 5731 5612 5518 5466 5397 5277 5194 5080 4991 4835 4776 4663 4610 4578 4494 4462 4332 4249 4125 4002 3956 3891 3800 3710 3657 3586 3540 3483 3436 3378 3299 3268 3243 3200 3185 3136 3081 3041 3010 2938 2919 2849 2832 2781 2727 2662 2625 2587 2567 2544 2516 2479 2453 2449 2437 2407 2392 2357 2351 2325 2306 2282 2239 2190 2164 2140 2106 2067 2005 2005 1967 1967 1947 1932 1907 1883 1858 1829 1819 1785 1768 1752 1703 1683 1669 1667 1650 1573 1555 1535 1526 1487 1487 1453 1443 1426 1421 1415 1383 1371 1354 1338 1338 1320 1312 1302 1278 1277 1257 1238 1231 1213 1205 1174 1144 1144 1133 1112 1081 1068 1036 1024 991 987 983 983 960 953 936 928 921 920 905 905 892 892 887 876 874 862 854 843 835 820 820 808 804 793 789 777 767 749 737 726 724 724 718 717 713 711 697 694 687 686 681 655 647 646 609 609 602 578 571 571 570 567 546 544 542 540 540 536 525 523 521 510 499 497 494 490 488 481 480 474 469 454 453 446 442 438 438 422 419 419 418 410 406 403 403 400 399 398 395 394 391 389 389 385 383 383 379 378 378 378 377 377 372 337 336 330 330 328 328 323 319 313 312 304 304 302 299 299 299 299 299 299 299 298 298 298 298 298 285 285 275 275 272 272 270 269 269 269 269 269 269 234 234 234 208 208 208 207 207 153 152 146 146 136 136 136 131 131 127 127 126 113 112 108 107 103 102 102 102 91 91 90 86 86 86 85 78 78 73 72 67 67 58 58 57 57 57 57 57 57 57 56 56 56 56 56 52 52 52 52 50 50 50 34 34 12 12 12 12 12 12 0 0 0 0 0 0 0 0 0 0 0 0 0 0 0 0 0 0 0 0 0 0 0 0 0 0 0 0 0 0 0 0 0 0 0 0 0 0 0 0 0 0 0 0 0 0 0 0 0 0 0 0 0 0 0 0 0 0 0 0 0 0 0 0 0 0 0 0 0 0 0 0 0 0 0 0 0 0 0 0 0 0 0 0 0 0 0 0 0 0 0 0 0 0 0 0 0 0 0 0 0 0 0 0 0 0 0 0 0 0 0 0 0 0 0 0 0 0 0 0 0 0 0 0 0 0 0 0 0 0 0 0 0 0 0 0 0 0 0 0 0 0 0 0 0 0 0 0 0 0 0 0 0 0 0 0 0 0 0 0 0 0 0 0 0 0 0 0 0 0 0 0 0 0 0 0 0 0 0 0 0 0 0 0 0 0 0 0 0 0 0 0 0 0 0 0 0 0 0 0 0 0 0 0 0 0 0 0 0 0 0 0 0 0 0 0 0 0 0 0 0 0 0 0 0 0 0 0 0 0 0 0 0 0 0 0 0 0 0 0 0 0 0 0 0 0 0 0 0 0 0 0 0 0 0 0 0 0 0 0 0 0 0 0 0 0 0 0 0 0 0 0 0 0 0 0 0 0 0 0 0 0 0 0 0 0 0 0 0 0 0 0 0 0 0 0 0 0 0 0 0 0 0 0 0 0 0 0 0 0 0 0 0 0 0 0 0 0 0 0 0 0 0 0 0 0 0 0 0 0 0 0 0 0 0 0 0 0 0 0 0 0 0 0 0 0 0 0 0 0 0 0 0 0 0 0 0 0 0 0 0 0 0 0 0 0 0 0 0 0 0 0 0 0 0 0 0 0 0 0 0 0 0 0 0 0 0 0 0 0 0 0 0 0 0 0 0 0 0 0 0 0 0 0 0 0 0 0 0 0 0 0 0 0 0 0 0 0 0 0 0 0 0 0 0 0 0 0 0 0 0 0 0 0 0 0 0 0 0 0 0 0 0 0 0 0 0 0 0 0 0 0 0 0 0 0 0 0 0 0 0 0 0 0 0 0 0 0 0 0 0 0 0 0 0 0 0 0 0 0 0 0 0 0 0 0 0 0 0 0 0 0 0 0 0 0 0 0 0 0 0 0 0 0 0 0 0 0 0 0 0 0 0 0 0 0 0 0 0 0 0 0 0 0 0 0 0 0 0 0 0 0 0 0 0 0 0 0 0 0 0 0 0 0 0 0 0 0 0 0 0 0 0 0 0 0 0 0 0 0 0 0 0 0 0 0 0 0 0 0 0 0 0 0 0 0 0 0 0 0 0 0 0 0 0 0 0 0 0 0 0 0 0 0 0 0 0 0 0 0 0 0 0 0 0 0 0 0 0 0 0 0 0 0 0 0 0 0 0 0 0 0 0 0 0 0 0 0 0 0 0 0 0 0 0 0 0 0 0 0 0 0 0 0 0 0 0 0 0 0 0 0 0 0 0 0 0 0 0 0 0 0 0 0 0 0 0 0 0 0 0 0 0 0 0 0 0 0 0 0 0 0 0 0 0 0 0 0 0 0 0 0 0 0 0 0 0 0 0 0 0 0 0 0 0 0 0 0 0 0 0 0 0 0 0 0 0 0 0 0 0 0 0 0 0 0 0 0 0 0 0 0 0 0 0 0 0 0 0 0 0 0 0 0 0 0 0 0 0 0 0 0 0 0 0 0 0 0 0 0 0 0 0 0 0 0 0 0 0 0 0 0 0 0 0 0 0 0 0 0 0 0 0 0 0 0 0 0 0 0 0 0 0 0 0 0 0 0 0 0 0 0 0 0 0 0 0 0 0 0 0 0 0 0 0 0 0 0 0 0 0 0 0 0 0 0 0 0 0 0 0 0 0 0 0 0 0 0 0 0 0 0 0 0 0 0 0 0 0 0 0 0 0 0 0 0 0 0 0 0 0 0 0 0 0 0 0 0 0 0 0 0 0 0 0 0 0 0 0 0 0 0 0 0 0 0 0 0 0 0 0 0 0 0 0 0 0 0 0 0 0 0 0 0 0 0 0 0 0 0 0 0 0 0 0 0 0 0 0 0 0 0 0 0 0 0 0 0 0 0 0 0 0 0 0 0 0 0 0 0 0 0 0 0 0 0 0 0 0 0 0 0 0 0 0 0 0 0 0 0 0 0 0 0 0 0 0 0 0 0 0 0 0 0 0 0 0 0 0 0 0 0 0 0 0 0 0 0 0 0 0 0 0 0 0 0 0 0 0 0 0 0 0 0 0 0 0 0 0 0 0 0 0 0 0 0 0 0 0 0 0 0 0 0 0 0 0 0 0 0 0 0 0 0 0 0 0 0 0 0 0 0 0 0 0 0 0 0 0 0 0 0 0 0 0 0 0 0 0 0 0 0 0 0 0 0 0 0 0 0 0 0 0 0 0 0 0 0 0 0 0 0 0 0 0 0 0 0 0 0 0 0 0 0 0 0 0 0 0 0 0 0 0 0 0 0 0 0 0 0 0 0 0 0 0 0 0 0 0 0 0 0 0 0 0 0 0 0 0 0 0 0 0 0 0 0 0 0 0 0 0 0 0 0 0 0 0 0 0 0 0 0 0 0 0 0 0 0 0 0 0 0 0 0 0 0 0 0 0 0 0 0 0 0 0 0 0 0 0 0 0 0 0 0 0 0 0 0 0 0 0 0 0 0 0 0 0 0 0 0 0 0 0 0 0 0 0 0 0 0 0 0 0 0 0 0 0 0 0 0 0 0 0 0 0 0 0 0 0 0 0 0 0 0 0 0 0 0 0 0 0 0 0 0 0 0 0 0 0 0 0 0 0 0 0 0 0 0 0 0 0 0 0 0 0 0 0 0 0 0 0 0 0 0 0 0 0 0 0 0 0 0 0 0 0 0 0 0 0 0 0 0 0 0 0 0 0 0 0 0 0 0 0 0 0 0 0 0 0 0 0 0 0 0 0 0 0 0 0 0 0 0 0 0 0 0 0 0 0 0 0 0 0 0 0 0 0 0 0 0 0 0 0 0 0 0 0 0 0 0 0 0 0 0 0 0 0 0 0 0 0 0 0 0 0 0 0 0 0 0 0 0 0 0 0 0 0 0 0 0 0 0 0 0 0 0 0 0 0 0 0 0 0 0 0 0 0 0 0 0 0 0 0 0 0 0 0 0 0 0 0 0 0 0 0 0 0 0 0 0 0 0 0 0 0 0 0 0 0 0 0 0 0 0 0 0 0 0 0 0 0 0 0 0 0 0 0 0 0 0 0 0 0 0 0 0 0 0 0 0 0 0 0 0 0 0 0 0 0 0 0 0 0 0 0 0 0 0 0 0 0 0 0 0 0 0 0 0 0 0 0 0 0 0 0 0 0 0 0 0 0 0 0 0 0 0 0 0 0 0 0 0 0 0 0 0 0 0 0 0 0 0 0 0 0 0 0 0 0 0 0 0 0 0 0 0 0 0 0 0 0 0 0 0 0 0 0 0 0 0 0 0 0 0 0 0 0 0 0 0 0 0 0 0 0 0 0 0 0 0 0 0 0 0 0 0 0 0 0 0 0 0 0 0 0 0 0 0 0 0 0 0 0 0 0 0 0 0 0 0 0 0 0 0 0 0 0 0 0 0 0 0 0 0 0 0 0 0 0 0 0 0 0 0 0 0 0 0 0 0 0 0 0 0 0 0 0 0 0 0 0 0 0 0 0 0 0 0 0 0 0 0 0 0 0 0 0 0 0 0 0 0 0 0 0 0 0 0 0 0 0 0 0 0 0 0 0 0 0 0 0 0 0 0 0 0 0 0 0 0 0 0 0 0 0 0 0 0 0 0 0 0 0 0 0 0 0 0 0 0 0 0 0 0 0 0 0 0 0 0 0 0 0 0 0 0 0 0 0 0 0 0 0 0 0 0 0 0 0 0 0 0 0 0 0 0 0 0 0 0 0 0 0 0 0 0 0 0 0 0 0 0 0 0 0 0 0 0 0 0 0 0 0 0 0 0 0 0 0 0 0 0 0 0 0 0 0 0 0 0 0 0 0 0 0 0 0 0 0 0 0 0 0 0 0 0 0 0 0 0 0 0 0 0 0 0 0 0 0 0 0 0 0 0 0 0 0 0 0 0 0 0 0 0 0 0 0 0 0 0 0 0 0 0 0 0 0 0 0 0 0 0 0 0 0 0 0 0 0 0 0 0 0 0 0 0 0 0 0 0 0 0 0 0 0 0 0 0 0 0 0 0 0 0 0 0 0 0 0 0 0 0 0 0 0 0 0 0 0 0 0 0 0 0 0 0 0 0 0 0 0 0 0 